100 2 100
77 4 67 29 76 50 23 26 72 11 37 6 59 9 24 38 70 55 39 12 41 24 50 29 65 76 21 38 67 45 47 96 1 66 26 77 17 49 55 41 60 92 99 72 53 75 62 23 30 1 88 71 77 90 43 66 74 33 85 71 33 82 24 99 8 53 68 9 9 61 21 53 61 93 7 36 8 82 67 9 70 38 39 61 91 82 27 17 67 13 40 95 64 52 55 17 20 16 78 82 
